p cnf 12 50 
-5 -7 -11 0
-2 -1 7 0
-3 6 4 0
-11 9 5 0
5 -2 -3 0
-8 4 -7 0
11 -5 3 0
-10 -11 5 0
-11 2 6 0
5 -11 -10 0
6 -1 -11 0
-6 4 -5 0
-3 -2 12 0
-9 -2 5 0
1 -7 10 0
8 -12 3 0
5 -6 1 0
-3 -7 -6 0
-1 -12 7 0
6 4 11 0
1 -11 -7 0
-3 -12 -1 0
3 7 1 0
-4 -11 12 0
3 12 -9 0
-11 -9 2 0
8 6 -7 0
-3 -2 6 0
1 5 10 0
8 5 3 0
-9 -6 10 0
-3 6 -10 0
-1 -8 -4 0
-3 4 12 0
12 6 8 0
11 6 -1 0
-2 -7 3 0
11 2 8 0
8 -11 -10 0
3 -12 6 0
12 9 3 0
2 -8 -1 0
-12 6 4 0
-7 8 -10 0
-5 3 -9 0
-7 10 1 0
-10 -3 -11 0
12 11 4 0
-9 5 -7 0
4 -7 12 0
